85
cuoep
N          -0.00000000      -2.01562642       0.33771520 
C          -1.09019374      -2.83530665       0.33555317 
C          -0.68532837      -4.22702340       0.32635045 
C           0.68532837      -4.22702340       0.32635045 
C           1.09019374      -2.83530665       0.33555317 
C          -2.41091002      -2.41091002       0.34451213 
C           2.41091002      -2.41091002       0.34451213 
C           2.83530665      -1.09019374       0.33555317 
N           2.01562642      -0.00000000       0.33771520 
C           2.83530665       1.09019374       0.33555317 
C           4.22702340       0.68532837       0.32635045 
C           4.22702340      -0.68532837       0.32635045 
N          -2.01562642       0.00000000       0.33771520 
C          -2.83530665       1.09019374       0.33555317 
C          -4.22702340       0.68532837       0.32635045 
C          -4.22702340      -0.68532837       0.32635045 
C          -2.83530665      -1.09019374       0.33555317 
C           2.41091002       2.41091002       0.34451213 
C          -2.41091002       2.41091002       0.34451213 
N           0.00000000       2.01562642       0.33771520 
C           1.09019374       2.83530665       0.33555317 
C           0.68532837       4.22702340       0.32635045 
C          -0.68532837       4.22702340       0.32635045 
C          -1.09019374       2.83530665       0.33555317 
H          -3.18177132      -3.18177132       0.35697224 
H           3.18177132       3.18177132       0.35697224 
H          -3.18177132       3.18177132       0.35697224 
H           3.18177132      -3.18177132       0.35697224 
C          -5.39645300      -1.61284255       0.26264499 
C          -5.68488869      -2.12706046      -1.14734971 
H          -6.28752155      -1.09507496       0.65201982 
H          -5.22964833      -2.46768360       0.93903472 
H          -6.55079113      -2.80669655      -1.15480311 
H          -5.89947361      -1.29361642      -1.83300785 
H          -4.82029703      -2.67162158      -1.55661481 
C          -5.39645300       1.61284255       0.26264499 
C          -5.68488869       2.12706046      -1.14734971 
H          -5.22964833       2.46768360       0.93903472 
H          -6.28752155       1.09507496       0.65201982 
H          -6.55079113       2.80669655      -1.15480311 
H          -4.82029703       2.67162158      -1.55661481 
H          -5.89947361       1.29361642      -1.83300785 
C          -1.61284255       5.39645300       0.26264499 
C          -2.12706046       5.68488869      -1.14734971 
H          -1.09507496       6.28752155       0.65201982 
H          -2.46768360       5.22964833       0.93903472 
H          -2.80669655       6.55079113      -1.15480311 
H          -1.29361642       5.89947361      -1.83300785 
H          -2.67162158       4.82029703      -1.55661481 
C           1.61284255       5.39645300       0.26264499 
C           2.12706046       5.68488869      -1.14734971 
H           2.46768360       5.22964833       0.93903472 
H           1.09507496       6.28752155       0.65201982 
H           2.80669655       6.55079113      -1.15480311 
H           2.67162158       4.82029703      -1.55661481 
H           1.29361642       5.89947361      -1.83300785 
C           5.39645300       1.61284255       0.26264499 
C           5.68488869       2.12706046      -1.14734971 
H           6.28752155       1.09507496       0.65201982 
H           5.22964833       2.46768360       0.93903472 
H           6.55079113       2.80669655      -1.15480311 
H           5.89947361       1.29361642      -1.83300785 
H           4.82029703       2.67162158      -1.55661481 
C           5.39645300      -1.61284255       0.26264499 
C           5.68488869      -2.12706046      -1.14734971 
H           5.22964833      -2.46768360       0.93903472 
H           6.28752155      -1.09507496       0.65201982 
H           6.55079113      -2.80669655      -1.15480311 
H           4.82029703      -2.67162158      -1.55661481 
H           5.89947361      -1.29361642      -1.83300785 
C           1.61284255      -5.39645300       0.26264499 
C           2.12706046      -5.68488869      -1.14734971 
H           1.09507496      -6.28752155       0.65201982 
H           2.46768360      -5.22964833       0.93903472 
H           2.80669655      -6.55079113      -1.15480311 
H           1.29361642      -5.89947361      -1.83300785 
H           2.67162158      -4.82029703      -1.55661481 
C          -1.61284255      -5.39645300       0.26264499 
C          -2.12706046      -5.68488869      -1.14734971 
H          -2.46768360      -5.22964833       0.93903472 
H          -1.09507496      -6.28752155       0.65201982 
H          -2.80669655      -6.55079113      -1.15480311 
H          -2.67162158      -4.82029703      -1.55661481 
H          -1.29361642      -5.89947361      -1.83300785 
Cu         -0.00000000      -0.00000000       0.34394478 
