85

N           0.00054067      -2.02536712       0.33436797  
C          -1.11117636      -2.85492187       0.34062182 
C          -0.69547734      -4.25186074       0.33164852 
C           0.66796843      -4.24650733       0.32013329 
C           1.07541279      -2.84056853       0.32657605 
C          -2.41061063      -2.43338456       0.35584494 
C           2.40863117      -2.42688110       0.33248477 
C           2.83974253      -1.10362101       0.33009242 
N           2.02102040      -0.00438341       0.34037268 
C           2.85023788       1.07581901       0.34159260 
C           4.22413176       0.68428722       0.32930687 
C           4.22451426      -0.70157444       0.32155472 
N          -2.02104046       0.00434231       0.34038692 
C          -2.83976188       1.10358154       0.33010224 
C          -4.22453416       0.70154059       0.32155980 
C          -4.22415273      -0.68432075       0.32931364 
C          -2.85025831      -1.07585970       0.34161644 
C           2.41059276       2.43334326       0.35579802 
C          -2.40865311       2.42684244       0.33250400 
N          -0.00056228       2.02532883       0.33434616 
C           1.11115791       2.85488024       0.34056573 
C           0.69546121       4.25182059       0.33157723 
C          -0.66798598       4.24647155       0.32010595 
C          -1.07543454       2.84053170       0.32658339 
H          -3.18718082      -3.19841619       0.37592751 
H           3.18715941       3.19837877       0.37587201 
H          -3.17358612       3.20263638       0.34068048 
H           3.17356627      -3.20267283       0.34065854 
C          -5.39734096      -1.60932585       0.27231697 
C          -5.69050096      -2.13595664      -1.13181198 
H          -6.28696630      -1.08576644       0.65786910 
H          -5.23804594      -2.45948607       0.95729409 
H          -6.56032031      -2.81107592      -1.13491834 
H          -5.89885718      -1.30768117      -1.82576895 
H          -4.82920728      -2.68954887      -1.53715948 
C          -5.39517891       1.62506391       0.25149813 
C          -5.69053032       2.12217486      -1.16377239 
H          -5.22787797       2.48952551       0.91596899 
H          -6.28450245       1.11112391       0.65033174 
H          -6.55756584       2.80055316      -1.17653407 
H          -4.82753322       2.66267308      -1.58187556 
H          -5.90601697       1.28014726      -1.83861601 
C          -1.60552518       5.40580930       0.25025238 
C          -2.14735187       5.65980582      -1.15628475 
H          -1.08922808       6.30890848       0.61237987 
H          -2.44647335       5.24215506       0.94520280 
H          -2.84251465       6.51303836      -1.16682533 
H          -1.32836322       5.87786182      -1.85807941 
H          -2.68320558       4.77952625      -1.54280875 
C           1.62228220       5.42076184       0.27375933 
C           2.14418045       5.70686145      -1.13407589 
H           2.47275393       5.25172611       0.95504057 
H           1.10200382       6.31172764       0.65946135 
H           2.82586601       6.57094321      -1.13705733 
H           2.68890851       4.84121977      -1.54040945 
H           1.31452295       5.92428132      -1.82337058 
C           5.39731343       1.60930731       0.27237402 
C           5.69051814       2.13601955      -1.13171540 
H           6.28693496       1.08573966       0.65792412 
H           5.23799169       2.45942980       0.95739224 
H           6.56032169       2.81115944      -1.13474408 
H           5.89892679       1.30778749      -1.82570775 
H           4.82923420       2.68961684      -1.53707565 
C           5.39517401      -1.62507327       0.25146762 
C           5.69060363      -2.12201542      -1.16384481 
H           5.22785068      -2.48960919       0.91583405 
H           6.28446680      -1.11116024       0.65040612 
H           6.55765015      -2.80037829      -1.17664609 
H           4.82763174      -2.66247393      -1.58205079 
H           5.90610898      -1.27990344      -1.83857736 
C           1.60552031      -5.40582946       0.25024191 
C           2.14735340      -5.65974809      -1.15630689 
H           1.08923615      -6.30895113       0.61232992 
H           2.44646383      -5.24218743       0.94520093 
H           2.84253856      -6.51296119      -1.16688884 
H           1.32836873      -5.87778927      -1.85811041 
H           2.68318281      -4.77943556      -1.54278969 
C          -1.62229993      -5.42080091       0.27387130 
C          -2.14416797      -5.70696265      -1.13396221 
H          -2.47278219      -5.25172737       0.95512982 
H          -1.10203062      -6.31174980       0.65962452 
H          -2.82587343      -6.57102844      -1.13691712 
H          -2.68886375      -4.84133100      -1.54035812 
H          -1.31449625      -5.92443694      -1.82322237 
Cu         -0.00001057      -0.00001911       0.34427911 
