37
same hessian
  Cu  0.000002    0.000003    -0.000365 
  N   -1.457780   1.457782    -0.000312 
  N   1.457782    -1.457782   -0.000296 
  N   1.457787    1.457783    -0.000183 
  N   -1.457781   -1.457783   -0.000173 
  C   -2.804157   1.249394    -0.000147 
  C   -1.249395   2.804159    -0.000205 
  C   1.249394    -2.804159   -0.000189 
  C   2.804159    -1.249395   -0.000132 
  C   -2.804158   -1.249396   0.000056 
  C   -1.249397   -2.804161   -0.000037 
  C   1.249397    2.804160    -0.000022 
  C   2.804164    1.249399    0.000048 
  C   -3.486952   2.522583    -0.000079 
  C   -2.522588   3.486951    -0.000258 
  C   2.522584    -3.486954   -0.000171 
  C   3.486951    -2.522589   -0.000136 
  C   -3.486953   -2.522586   0.000353 
  C   -2.522589   -3.486953   0.000112 
  C   2.522587    3.486957    0.000161 
  C   3.486955    2.522592    0.000380 
  C   -3.428103   -0.000001   0.000046 
  C   0.000001    3.428104    -0.000039 
  C   -0.000001   -3.428105   -0.000040 
  C   3.428107    0.000000    0.000051 
  H   -4.568171   2.652661    0.000064 
  H   -2.652674   4.568169    -0.000296 
  H   2.652662    -4.568173   -0.000157 
  H   4.568169    -2.652676   -0.000091 
  H   -4.568172   -2.652664   0.000656 
  H   -2.652674   -4.568171   0.000167 
  H   2.652664    4.568176    0.000212 
  H   4.568172    2.652680    0.000634 
  H   -4.519929   0.000000    0.000173 
  H   0.000001    -4.519931   0.000014 
  H   4.519933    -0.000005   0.000173 
  H   0.000002    4.519930    0.000028 