37
same hessian
  Cu  0.000002    0.000000    0.000455 
  N   -1.470690   1.470633    0.000233 
  N   1.470693    -1.470634   0.000220 
  N   1.435816    1.435756    0.000132 
  N   -1.435813   -1.435756   0.000129 
  C   -2.813537   1.265286    0.000164 
  C   -1.265296   2.813482    0.000134 
  C   1.265297    -2.813482   0.000120 
  C   2.813541    -1.265288   0.000169 
  C   -2.790009   -1.231087   0.000020 
  C   -1.231098   -2.789954   -0.000015 
  C   1.231098    2.789954    -0.000015 
  C   2.790012    1.231089    0.000015 
  C   -3.502533   2.538858    0.000061 
  C   -2.538847   3.502514    0.000057 
  C   2.538845    -3.502518   0.000032 
  C   3.502534    -2.538864   0.000101 
  C   -3.467545   -2.499924   -0.000153 
  C   -2.499914   -3.467525   -0.000198 
  C   2.499911    3.467528    -0.000192 
  C   3.467544    2.499929    -0.000182 
  C   -3.427571   0.011762    0.000073 
  C   -0.011762   3.427493    0.000027 
  C   0.011762    -3.427493   0.000023 
  C   3.427575    -0.011762   0.000076 
  H   -4.583943   2.668270    -0.000019 
  H   -2.668232   4.583927    -0.000027 
  H   2.668224    -4.583932   -0.000078 
  H   4.583943    -2.668285   0.000056 
  H   -4.548545   -2.632727   -0.000248 
  H   -2.632691   -4.548528   -0.000339 
  H   2.632680    4.548533    -0.000319 
  H   4.548543    2.632743    -0.000308 
  H   -4.519387   -0.001543   -0.000014 
  H   -0.001541   -4.519310   -0.000096 
  H   4.519391    0.001543    -0.000005 
  H   0.001543    4.519310    -0.000088 