37
cup  x-bdfopt-scf.inp opt.xyz numhess
Cu         -0.00000000      -0.00000000       0.00000000 
N          -1.42464007       1.42464007       0.00000000 
N           1.42464007      -1.42464007      -0.00000000 
N           1.42464007       1.42464007       0.00000000 
N          -1.42464007      -1.42464007      -0.00000000 
C          -2.77618446       1.23209112      -0.00000000 
C          -1.23209112       2.77618446       0.00000000 
C           1.23209112      -2.77618446      -0.00000000 
C           2.77618446      -1.23209112       0.00000000 
C          -2.77618446      -1.23209112       0.00000000 
C          -1.23209112      -2.77618446      -0.00000000 
C           1.23209112       2.77618446      -0.00000000 
C           2.77618446       1.23209112       0.00000000 
C          -3.46194461       2.49946959       0.00000000 
C          -2.49946959       3.46194461       0.00000000 
C           2.49946959      -3.46194461       0.00000000 
C           3.46194461      -2.49946959      -0.00000000 
C          -3.46194461      -2.49946959      -0.00000000 
C          -2.49946959      -3.46194461       0.00000000 
C           2.49946959       3.46194461       0.00000000 
C           3.46194461       2.49946959      -0.00000000 
C          -3.41551772       0.00000000       0.00000000 
C           0.00000000       3.41551772       0.00000000 
C          -0.00000000      -3.41551772      -0.00000000 
C           3.41551772      -0.00000000       0.00000000 
H          -4.54394849       2.62098945      -0.00000000 
H          -2.62098945       4.54394849       0.00000000 
H           2.62098945      -4.54394849       0.00000000 
H           4.54394849      -2.62098945       0.00000000 
H          -4.54394849      -2.62098945       0.00000000 
H          -2.62098945      -4.54394849       0.00000000 
H           2.62098945       4.54394849      -0.00000000 
H           4.54394849       2.62098945      -0.00000000 
H          -4.50658957       0.00000000       0.00000000 
H          -0.00000000      -4.50658957      -0.00000000 
H           4.50658957      -0.00000000       0.00000000 
H           0.00000000       4.50658957      -0.00000000 
