77
cutpp
Cu          0.00003438       0.00007288       0.00040975 
N          -1.92763710       0.58503041       0.00312010 
N           1.92770437      -0.58488567       0.00315385 
N           0.58499107       1.92774399      -0.00216390 
N          -0.58492299      -1.92759787      -0.00213859 
C          -3.02970442      -0.22307500      -0.05689444 
C          -2.39424110       1.86988455      -0.04823042 
C           2.39430935      -1.86973963      -0.04817848 
C           3.02977153       0.22322007      -0.05686148 
C          -1.86977698      -2.39419917       0.04922679 
C           0.22318215      -3.02966422       0.05789838 
C          -0.22311432       3.02981232       0.05783661 
C           1.86984493       2.39434881       0.04918706 
C          -4.22455486       0.57274400      -0.18168431 
C          -3.82960847       1.87369960      -0.17554222 
C           3.82967879      -1.87355593      -0.17547011 
C           4.22462516      -0.57260064      -0.18161530 
C          -1.87359360      -3.82956822       0.17652258 
C          -0.57263909      -4.22451661       0.18265457 
C           0.57270673       4.22467014       0.18254823 
C           1.87366174       3.82972269       0.17642322 
C          -3.03292417      -1.62034960      -0.00718373 
C          -1.62038882       3.03303187       0.00813794 
C           1.62045686      -3.03288650       0.00820111 
C           3.03299106       1.62049561      -0.00718571 
H          -5.23196309       0.17616283      -0.27823785 
H          -4.44618601       2.76428344      -0.26609246 
H           4.44625669      -2.76414112      -0.26601017 
H           5.23203755      -0.17602406      -0.27814340 
H          -2.76417744      -4.44614977       0.26704742 
H          -0.17606409      -5.23193284       0.27915135 
H           0.17612741       5.23208712       0.27901307 
H           2.76424859       4.44630510       0.26691082 
C          -4.34501341      -2.32164526      -0.01335276 
C          -2.32167911       4.34512478       0.01418712 
C           2.32173868      -4.34498298       0.01427008 
C           4.34508712       2.32177978      -0.01335566 
C          -4.72517094      -3.11456100      -1.10368176 
C          -2.20128167       5.22414966      -1.06974692 
C           2.20130116      -5.22404180      -1.06963300 
C           4.72527892       3.11463778      -1.10371480 
C          -5.22415191      -2.20125653       1.07049164 
C          -3.11461881       4.72538466       1.10446265 
C           3.11469451      -4.72522680       1.10454085 
C           5.22421292       2.20140271       1.07049890 
C          -5.95439426      -3.76969847      -1.11059554 
C          -2.85780246       6.45262632      -1.06378263 
C           2.85779476      -6.45253284      -1.06364293 
C           5.95452527       3.76973198      -1.11064628 
C          -6.45263892      -2.85775859       1.06438308 
C          -3.76977640       5.95459916       1.11123181 
C           3.76982516      -5.95445557       1.11133569 
C           6.45272335       2.85786089       1.06437230 
C          -6.82152588      -3.64342181      -0.02644782 
C          -3.64349274       6.82161720       0.02699311 
C           3.64349935      -6.82150620       0.02712806 
C           6.82164531       3.64346731      -0.02648745 
H          -4.04699010      -3.20710931      -1.95513897 
H          -1.59004168       4.93055327      -1.92628460 
H           1.59004419      -4.93046640      -1.92616561 
H           4.04711139       3.20716130      -1.95518533 
H          -4.93064201      -1.59002490       1.92706269 
H          -3.20718282       4.04728038       1.95597756 
H           3.20728465      -4.04710401       1.95603762 
H           4.93068304       1.59019863       1.92708348 
H          -6.23850756      -4.37968480      -1.97137705 
H          -2.75803339       7.12452684      -1.91955818 
H           2.75798829      -7.12446358      -1.91939085 
H           6.23867080       4.37966277      -1.97145605 
H          -7.12463961      -2.75798913       1.92007830 
H          -4.37979610       6.23879010       1.97196200 
H           4.37985130      -6.23863804       1.97206431 
H           7.12472023       2.75808734       1.92007011 
H          -7.78540133      -4.15763138      -0.03163704 
H          -4.15772358       7.78548138       0.03205472 
H           4.15770371      -7.78538513       0.03221290 
H           7.78554517       4.15763026      -0.03169553 
