37
cup d2h_only_opt_r5 opt.xyz
Cu          0.00000000       0.00000000       0.00000000 
N          -2.04130234       0.00000000       0.00000000 
N           2.04130234      -0.00000000      -0.00000000 
N           0.00000000       2.01982017       0.00000000 
N          -0.00000000      -2.01982017      -0.00000000 
C          -2.86316172      -1.09207257       0.00000000 
C          -2.86316172       1.09207257       0.00000000 
C           2.86316172      -1.09207257      -0.00000000 
C           2.86316172       1.09207257      -0.00000000 
C          -1.08991765      -2.84666942       0.00000000 
C           1.08991765      -2.84666942      -0.00000000 
C          -1.08991765       2.84666942       0.00000000 
C           1.08991765       2.84666942      -0.00000000 
C          -4.24716895      -0.67951143       0.00000000 
C          -4.24716895       0.67951143       0.00000000 
C           4.24716895      -0.67951143      -0.00000000 
C           4.24716895       0.67951143      -0.00000000 
C          -0.69427960      -4.20508562       0.00000000 
C           0.69427960      -4.20508562      -0.00000000 
C          -0.69427960       4.20508562       0.00000000 
C           0.69427960       4.20508562      -0.00000000 
C          -2.43606195      -2.40986688       0.00000000 
C          -2.43606195       2.40986688       0.00000000 
C           2.43606195      -2.40986688      -0.00000000 
C           2.43606195       2.40986688      -0.00000000 
H          -5.09802768      -1.35874947       0.00000000 
H          -5.09802768       1.35874947       0.00000000 
H           5.09802768      -1.35874947      -0.00000000 
H           5.09802768       1.35874947      -0.00000000 
H          -1.37037972      -5.05813635       0.00000000 
H           1.37037972      -5.05813635      -0.00000000 
H          -1.37037972       5.05813635       0.00000000 
H           1.37037972       5.05813635      -0.00000000 
H          -3.20513884      -3.18431188       0.00000000 
H           3.20513884      -3.18431188      -0.00000000 
H           3.20513884       3.18431188      -0.00000000 
H          -3.20513884       3.18431188       0.00000000 