37
same hessian
  Cu  0.000003    0.000000    0.000009 
  N   -1.456678   1.456321    0.000008 
  N   1.456681    -1.456322   0.000014 
  N   1.456858    1.456499    -0.000008 
  N   -1.456854   -1.456498   0.000009 
  C   -2.803240   1.249238    0.000076 
  C   -1.249293   2.802844    -0.000017 
  C   1.249293    -2.802843   -0.000049 
  C   2.803244    -1.249239   0.000101 
  C   -2.803391   -1.249403   0.000078 
  C   -1.249456   -2.802996   -0.000089 
  C   1.249455    2.802996    -0.000066 
  C   2.803396    1.249405    0.000034 
  C   -3.486685   2.522121    -0.000052 
  C   -2.522042   3.486564    0.000074 
  C   2.522039    -3.486567   0.000006 
  C   3.486685    -2.522127   0.000081 
  C   -3.486850   -2.522284   0.000047 
  C   -2.522203   -3.486730   -0.000042 
  C   2.522199    3.486734    -0.000043 
  C   3.486850    2.522290    -0.000061 
  C   -3.427763   -0.000045   0.000146 
  C   0.000043    3.427252    -0.000085 
  C   -0.000043   -3.427253   -0.000178 
  C   3.427767    0.000045    0.000129 
  H   -4.567879   2.652922    -0.000154 
  H   -2.652632   4.567784    0.000099 
  H   2.652622    -4.567788   -0.000016 
  H   4.567878    -2.652940   0.000131 
  H   -4.568039   -2.653132   0.000090 
  H   -2.652837   -4.567945   -0.000083 
  H   2.652826    4.567951    -0.000046 
  H   4.568037    2.653148    -0.000085 
  H   -4.519664   0.000056    0.000171 
  H   0.000059    -4.519156   -0.000252 
  H   4.519669    -0.000057   0.000155 
  H   -0.000056   4.519155    -0.000131 