37
same hessian
  Cu    0.000000    -0.000000    -0.000457
  N   -1.432841     1.432664    -0.000206
  N    1.432840    -1.432664    -0.000225
  N    1.473933     1.473746    -0.000236
  N   -1.473933    -1.473746    -0.000214
  C   -2.787745     1.228272    -0.000210
  C   -1.228298     2.787563     0.000129
  C    1.228298    -2.787563     0.000028
  C    2.787745    -1.228272    -0.000124
  C   -2.816145    -1.268081    -0.000195
  C   -1.268114    -2.815949    -0.000009
  C    1.268114     2.815949     0.000046
  C    2.816145     1.268081    -0.000189
  C   -3.464702     2.497000    -0.000007
  C   -2.496954     3.464649     0.000092
  C    2.496954    -3.464649     0.000164
  C    3.464702    -2.497000    -0.000008
  C   -3.505484    -2.541820    -0.000114
  C   -2.541780    -3.505422     0.000187
  C    2.541780     3.505422     0.000138
  C    3.505484     2.541820    -0.000209
  C   -3.427683    -0.013394    -0.000257
  C    0.013402     3.427430     0.000343
  C   -0.013402    -3.427430     0.000121
  C    3.427683     0.013393    -0.000172
  H   -4.545637     2.630314     0.000023
  H   -2.630161     4.545597     0.000226
  H    2.630161    -4.545597     0.000361
  H    4.545637    -2.630314     0.000042
  H   -4.586813    -2.671979    -0.000125
  H   -2.671828    -4.586764     0.000431
  H    2.671828     4.586765     0.000350
  H    4.586813     2.671980    -0.000287
  H   -4.519464     0.002961    -0.000214
  H    0.002944    -4.519212     0.000339
  H    4.519464    -0.002961    -0.000132
  H   -0.002944     4.519212     0.000569