37
cup x-opt-d2h-uks-1 opt.xyz
Cu          0.00000000       0.00000000      -0.00000000 
N          -2.02590267       0.00000000      -0.00000000 
N           2.02590267      -0.00000000       0.00000000 
N           0.00000000       2.03384386      -0.00000000 
N          -0.00000000      -2.03384386       0.00000000 
C          -2.85236409      -1.08892773       0.00000000 
C          -2.85236409       1.08892773      -0.00000000 
C           2.85236409      -1.08892773       0.00000000 
C           2.85236409       1.08892773      -0.00000000 
C          -1.09315314      -2.85664655       0.00000000 
C           1.09315314      -2.85664655       0.00000000 
C          -1.09315314       2.85664655      -0.00000000 
C           1.09315314       2.85664655      -0.00000000 
C          -4.21017704      -0.69314172       0.00000000 
C          -4.21017704       0.69314172      -0.00000000 
C           4.21017704      -0.69314172       0.00000000 
C           4.21017704       0.69314172      -0.00000000 
C          -0.67922705      -4.24057413       0.00000000 
C           0.67922705      -4.24057413       0.00000000 
C          -0.67922705       4.24057413      -0.00000000 
C           0.67922705       4.24057413      -0.00000000 
C          -2.40845462      -2.43334837       0.00000000 
C          -2.40845462       2.43334837      -0.00000000 
C           2.40845462      -2.43334837       0.00000000 
C           2.40845462       2.43334837      -0.00000000 
H          -5.06313252      -1.36937103       0.00000000 
H          -5.06313252       1.36937103      -0.00000000 
H           5.06313252      -1.36937103       0.00000000 
H           5.06313252       1.36937103      -0.00000000 
H          -1.35811773      -5.09176040       0.00000000 
H           1.35811773      -5.09176040       0.00000000 
H          -1.35811773       5.09176040      -0.00000000 
H           1.35811773       5.09176040      -0.00000000 
H          -3.18074127      -3.20484282       0.00000000 
H           3.18074127      -3.20484282       0.00000000 
H           3.18074127       3.20484282      -0.00000000 
H          -3.18074127       3.20484282      -0.00000000 
