77
cutpp
Cu          0.00002559       0.00005175      -0.00283739 
N          -1.93146915       0.58678462      -0.03613027 
N           1.93151933      -0.58668007      -0.03607101 
N           0.59208017       1.95037858       0.03330573 
N          -0.59203275      -1.95027450       0.03333655 
C          -3.03803941      -0.21793391      -0.11202947 
C          -2.40337474       1.87167040      -0.09711107 
C           2.40342339      -1.87156844      -0.09701597 
C           3.03809110       0.21803657      -0.11197943 
C          -1.87834697      -2.41822592       0.07573265 
C           0.21544075      -3.05460819       0.09031557 
C          -0.21539683       3.05471095       0.09024514 
C           1.87839259       2.41833336       0.07572023 
C          -4.21130584       0.55652545      -0.26869302 
C          -3.80859661       1.88267483      -0.25839429 
C           3.80864811      -1.88257839      -0.25827516 
C           4.21135798      -0.55642930      -0.26861462 
C          -1.88159388      -3.85457201       0.22692557 
C          -0.58302213      -4.24919308       0.23732045 
C           0.58305779       4.24930000       0.23725472 
C           1.88163087       3.85468367       0.22687870 
C          -3.03352838      -1.64262461      -0.02000719 
C          -1.60761555       3.05295015       0.00639965 
C           1.60766235      -3.05284731       0.00650451 
C           3.03357691       1.64273133      -0.01998741 
H          -5.21883877       0.16629151      -0.38257514 
H          -4.42835638       2.76890976      -0.36284483 
H           4.42840855      -2.76881759      -0.36269031 
H           5.21889317      -0.16620437      -0.38250816 
H          -2.77163362      -4.47023714       0.32631904 
H          -0.18772456      -5.25553379       0.34703206 
H           0.18775264       5.25564107       0.34693778 
H           2.77166307       4.47035474       0.32629967 
C          -4.34542132      -2.33446612      -0.02425018 
C          -2.31435039       4.35662081       0.02317604 
C           2.31441282      -4.35650930       0.02330600 
C           4.34546670       2.33458040      -0.02425553 
C          -4.69480346      -3.19701759      -1.07172222 
C          -2.13213226       5.28259983      -1.01255636 
C           2.13222624      -5.28249888      -1.01242236 
C           4.69482007       3.19713017      -1.07173924 
C          -5.25907593      -2.13581996       1.02005969 
C          -3.17808017       4.68432786       1.07742817 
C           3.17815679      -4.68418202       1.07755779 
C           5.25914763       2.13594382       1.02003330 
C          -5.92699275      -3.84654663      -1.07418389 
C          -2.79482444       6.50758490      -0.99312288 
C           2.79496859      -6.50745720      -0.99298878 
C           5.92700715       3.84666326      -1.07423576 
C          -6.48655918      -2.79235211       1.02064853 
C          -3.83293195       5.91248215       1.09992610 
C           3.83305938      -5.91230913       1.10005564 
C           6.48662873       2.79248074       1.02058765 
C          -6.82513756      -3.64805823      -0.02717325 
C          -3.64469595       6.82713961       0.06417973 
C           3.64485825      -6.82697510       0.06431027 
C           6.82517912       3.64818157      -0.02724732 
H          -3.99227131      -3.34642063      -1.89476400 
H          -1.47069406       5.02791377      -1.84375691 
H           1.47078003      -5.02783758      -1.84362422 
H           3.99226648       3.34652823      -1.89476364 
H          -4.99232329      -1.46503377       1.83957824 
H          -3.32440347       3.96668562       1.88756064 
H           3.32445981      -3.96652933       1.88768475 
H           4.99241960       1.46516130       1.83956276 
H          -6.18797905      -4.50958171      -1.90235828 
H          -2.64827241       7.21556671      -1.81220727 
H           2.64844623      -7.21544519      -1.81207319 
H           6.18797061       4.50969526      -1.90241970 
H          -7.18372005      -2.63579327       1.84713504 
H          -4.49420118       6.15808856       1.93419884 
H           4.49434508      -6.15788576       1.93432437 
H           7.18381168       2.63593030       1.84705718 
H          -7.79051641      -4.15941452      -0.02781415 
H          -4.16221274       7.78908479       0.08083284 
H           4.16241875      -7.78889675       0.08096021 
H           7.79055723       4.15953954      -0.02791536 
